p edge 54 280
e 1 2
e 1 4
e 1 12
e 1 14
e 1 28
e 1 30
e 2 3
e 2 11
e 2 13
e 2 27
e 2 29
e 3 6
e 3 12
e 3 16
e 3 28
e 3 32
e 3 38
e 4 6
e 4 11
e 4 16
e 4 27
e 4 32
e 4 38
e 5 6
e 5 7
e 5 8
e 5 9
e 5 10
e 5 16
e 5 17
e 5 18
e 5 19
e 5 20
e 5 32
e 5 33
e 5 34
e 5 35
e 5 36
e 5 38
e 5 39
e 5 40
e 5 41
e 5 42
e 6 7
e 6 8
e 6 9
e 6 10
e 6 13
e 6 14
e 6 15
e 6 17
e 6 18
e 6 19
e 6 20
e 6 29
e 6 30
e 6 31
e 6 33
e 6 34
e 6 35
e 6 36
e 6 37
e 6 39
e 6 40
e 6 41
e 6 42
e 7 8
e 7 9
e 7 10
e 7 15
e 7 16
e 7 18
e 7 19
e 7 20
e 7 31
e 7 32
e 7 34
e 7 35
e 7 36
e 7 37
e 7 38
e 7 40
e 7 41
e 7 42
e 8 9
e 8 10
e 8 15
e 8 16
e 8 17
e 8 19
e 8 20
e 8 31
e 8 32
e 8 33
e 8 35
e 8 36
e 8 37
e 8 38
e 8 39
e 8 41
e 8 42
e 9 10
e 9 15
e 9 16
e 9 17
e 9 18
e 9 20
e 9 31
e 9 32
e 9 33
e 9 34
e 9 36
e 9 37
e 9 38
e 9 39
e 9 40
e 9 42
e 10 15
e 10 16
e 10 17
e 10 18
e 10 19
e 10 31
e 10 32
e 10 33
e 10 34
e 10 35
e 10 37
e 10 38
e 10 39
e 10 40
e 10 41
e 11 22
e 11 28
e 11 30
e 11 44
e 12 22
e 12 27
e 12 29
e 12 44
e 13 22
e 13 28
e 13 32
e 13 44
e 14 22
e 14 27
e 14 32
e 14 44
e 15 22
e 15 32
e 15 33
e 15 34
e 15 35
e 15 36
e 15 44
e 16 22
e 16 29
e 16 30
e 16 31
e 16 33
e 16 34
e 16 35
e 16 36
e 16 44
e 17 22
e 17 31
e 17 32
e 17 34
e 17 35
e 17 36
e 17 44
e 18 22
e 18 31
e 18 32
e 18 33
e 18 35
e 18 36
e 18 44
e 19 22
e 19 31
e 19 32
e 19 33
e 19 34
e 19 36
e 19 44
e 20 22
e 20 31
e 20 32
e 20 33
e 20 34
e 20 35
e 20 44
e 21 22
e 21 23
e 21 24
e 21 25
e 21 26
e 21 44
e 21 45
e 21 46
e 21 47
e 21 48
e 22 23
e 22 24
e 22 25
e 22 26
e 22 37
e 22 38
e 22 39
e 22 40
e 22 41
e 22 42
e 22 43
e 22 45
e 22 46
e 22 47
e 22 48
e 23 24
e 23 25
e 23 26
e 23 43
e 23 44
e 23 46
e 23 47
e 23 48
e 24 25
e 24 26
e 24 43
e 24 44
e 24 45
e 24 47
e 24 48
e 25 26
e 25 43
e 25 44
e 25 45
e 25 46
e 25 48
e 26 43
e 26 44
e 26 45
e 26 46
e 26 47
e 27 50
e 28 50
e 29 50
e 30 50
e 31 50
e 32 50
e 33 50
e 34 50
e 35 50
e 36 50
e 37 50
e 38 50
e 39 50
e 40 50
e 41 50
e 42 50
e 43 50
e 44 50
e 45 50
e 46 50
e 47 50
e 48 50
e 49 50
e 49 51
e 49 52
e 49 53
e 49 54
e 50 51
e 50 52
e 50 53
e 50 54
e 51 52
e 51 53
e 51 54
e 52 53
e 52 54
e 53 54
